N = 6;
H = 5;
T = 2;

avail = array3d(1..N, 1..H, 1..T, [1, 9, 7, 9, 8, 3, 5, 9, 10, 2, 9, 2, 3, 0, 0, 7, 1, 1, 9, 2, 8, 10, 5, 3, 9, 4, 7, 1, 5, 5, 0, 7, 3, 0, 2, 2, 0, 10, 9, 6, 7, 3, 3, 10, 3, 7, 8, 0, 2, 10, 8, 7, 7, 3, 10, 0, 8, 1, 6, 2]);

r = array2d(1..H, 1..T, [0, 2, 2, 3, 1, 2, 0, 1, 2, 2]);
